\ Model QCP
\ LP format - for model browsing. Use MPS format to capture full model detail.
Minimize
  z + y
Subject To
 Cut_0: z + [ ] >= 1320
 Cut_1: z + [ 420 y ^2 ] >= 87240
 Cut_2: z + [ 40 y ^2 ] >= 10100
 Cut_3: z + [ 8.571428571428571 y ^2 ] >= 3342.857142857143
 Cut_4: z + [ 3.75 y ^2 ] >= 2272.5
 Cut_5: z + [ ] >= 1320
 Cut_6: z + [ ] >= 1320
 Cut_7: z + [ ] >= 1320
 Cut_8: z + [ ] >= 1320
 Cut_9: z + [ ] >= 1320
Bounds
 1320 <= z <= 1980
 14.24780684877501 <= y <= 15.93737745050923
End
